/*********************************************
 * OPL 12.4 Data
 * Author: wningchu
 * Creation Date: 2014-01-28 at 10:02:35 AM
 *********************************************/

NbProducts = 4;
NbPeriods = 3;

Revenue = [ 7, 9, 6, 10 ];
Raw = [ 3, 5, 4, 8 ];
a = [ 0.5, 1, 2 ];
b = [ 0, -500, -3000 ];
MaxRaw = 5000;
MinPercent = 0.35;
MinProducts = { 1, 4 };